<?xml version = "1.0" encoding="UTF-8" standalone="yes"?>
<CPLEXSolution version="1.2">
 <header
   problemName="IloCplex"
   solutionName="p0"
   solutionIndex="-1"
   objectiveValue="205956"
   solutionTypeValue="3"
   solutionTypeString="primal"
   solutionStatusValue="127"
   solutionStatusString="integer feasible solution"
   solutionMethodString="mip"
   primalFeasible="0"
   dualFeasible="0"
   writeLevel="3"/>
 <quality
   epInt="1.0000000000000001e-05"
   epRHS="9.9999999999999995e-07"
   maxIntInfeas="0"
   maxPrimalInfeas="0"
   maxX="760"
   maxSlack="50"/>
 <variables>
  <variable name="x1" index="0" value="760"/>
  <variable name="w0_0" index="1" value="760"/>
  <variable name="w0_3" index="4" value="760"/>
  <variable name="w2_0" index="9" value="760"/>
  <variable name="w2_1" index="10" value="760"/>
  <variable name="w2_2" index="11" value="760"/>
  <variable name="w3_0" index="13" value="760"/>
  <variable name="w3_1" index="14" value="760"/>
  <variable name="w3_2" index="15" value="760"/>
  <variable name="w4_1" index="18" value="760"/>
  <variable name="w5_1" index="22" value="760"/>
  <variable name="w6_0" index="25" value="760"/>
  <variable name="w6_2" index="27" value="760"/>
  <variable name="w7_0" index="29" value="760"/>
  <variable name="w7_3" index="32" value="760"/>
  <variable name="w8_0" index="33" value="760"/>
  <variable name="w8_1" index="34" value="760"/>
  <variable name="w8_2" index="35" value="760"/>
  <variable name="w9_1" index="38" value="760"/>
  <variable name="w10_3" index="44" value="760"/>
  <variable name="w11_1" index="46" value="760"/>
  <variable name="w11_2" index="47" value="760"/>
  <variable name="w12_1" index="50" value="760"/>
  <variable name="w13_0" index="53" value="760"/>
  <variable name="w13_2" index="55" value="760"/>
  <variable name="w14_0" index="57" value="760"/>
  <variable name="w16_2" index="67" value="760"/>
  <variable name="w17_2" index="71" value="760"/>
  <variable name="w18_3" index="76" value="760"/>
  <variable name="w19_0" index="77" value="760"/>
  <variable name="w19_1" index="78" value="760"/>
  <variable name="w20_2" index="83" value="760"/>
  <variable name="w21_3" index="88" value="760"/>
  <variable name="w22_0" index="89" value="760"/>
  <variable name="w22_3" index="92" value="760"/>
  <variable name="w24_0" index="97" value="760"/>
  <variable name="w24_2" index="99" value="760"/>
  <variable name="w25_1" index="102" value="760"/>
  <variable name="w25_2" index="103" value="760"/>
  <variable name="w26_0" index="105" value="760"/>
  <variable name="w26_2" index="107" value="760"/>
  <variable name="w27_2" index="111" value="760"/>
  <variable name="w28_1" index="114" value="760"/>
  <variable name="w29_3" index="120" value="760"/>
  <variable name="w30_3" index="124" value="760"/>
  <variable name="w31_0" index="125" value="760"/>
  <variable name="w31_3" index="128" value="760"/>
  <variable name="w32_1" index="130" value="760"/>
  <variable name="w33_1" index="134" value="760"/>
  <variable name="w33_2" index="135" value="760"/>
  <variable name="w34_0" index="137" value="760"/>
  <variable name="w35_2" index="143" value="760"/>
  <variable name="w36_1" index="146" value="760"/>
  <variable name="w36_2" index="147" value="760"/>
  <variable name="w38_1" index="154" value="760"/>
  <variable name="w38_2" index="155" value="760"/>
  <variable name="w39_0" index="157" value="760"/>
  <variable name="w40_1" index="162" value="760"/>
  <variable name="w41_0" index="165" value="760"/>
  <variable name="w42_1" index="170" value="760"/>
  <variable name="w44_1" index="178" value="760"/>
  <variable name="w45_2" index="183" value="760"/>
  <variable name="w46_1" index="186" value="760"/>
  <variable name="w47_0" index="189" value="760"/>
  <variable name="w47_2" index="191" value="760"/>
  <variable name="w48_3" index="196" value="760"/>
  <variable name="w49_0" index="197" value="760"/>
  <variable name="w49_1" index="198" value="760"/>
  <variable name="w49_2" index="199" value="760"/>
  <variable name="x0_1" index="202" value="1"/>
  <variable name="x1_46" index="297" value="1"/>
  <variable name="x2_13" index="314" value="1"/>
  <variable name="x3_14" index="365" value="1"/>
  <variable name="x4_38" index="439" value="1"/>
  <variable name="x5_34" index="485" value="1"/>
  <variable name="x6_25" index="526" value="1"/>
  <variable name="x7_0" index="551" value="1"/>
  <variable name="x8_4" index="605" value="1"/>
  <variable name="x9_39" index="690" value="1"/>
  <variable name="x10_5" index="706" value="1"/>
  <variable name="x11_18" index="769" value="1"/>
  <variable name="x12_36" index="837" value="1"/>
  <variable name="x13_22" index="873" value="1"/>
  <variable name="x14_43" index="944" value="1"/>
  <variable name="x15_48" index="999" value="1"/>
  <variable name="x16_26" index="1027" value="1"/>
  <variable name="x17_24" index="1075" value="1"/>
  <variable name="x18_9" index="1110" value="1"/>
  <variable name="x19_31" index="1182" value="1"/>
  <variable name="x20_30" index="1231" value="1"/>
  <variable name="x21_6" index="1257" value="1"/>
  <variable name="x22_3" index="1304" value="1"/>
  <variable name="x23_49" index="1400" value="1"/>
  <variable name="x24_19" index="1420" value="1"/>
  <variable name="x25_20" index="1471" value="1"/>
  <variable name="x26_17" index="1518" value="1"/>
  <variable name="x27_27" index="1578" value="1"/>
  <variable name="x28_35" index="1636" value="1"/>
  <variable name="x29_10" index="1661" value="1"/>
  <variable name="x30_7" index="1708" value="1"/>
  <variable name="x31_2" index="1753" value="1"/>
  <variable name="x32_33" index="1834" value="1"/>
  <variable name="x33_12" index="1863" value="1"/>
  <variable name="x34_41" index="1942" value="1"/>
  <variable name="x35_29" index="1980" value="1"/>
  <variable name="x36_15" index="2016" value="1"/>
  <variable name="x37_44" index="2095" value="1"/>
  <variable name="x38_16" index="2117" value="1"/>
  <variable name="x39_45" index="2196" value="1"/>
  <variable name="x40_40" index="2241" value="1"/>
  <variable name="x41_42" index="2293" value="1"/>
  <variable name="x42_37" index="2338" value="1"/>
  <variable name="x43_47" index="2398" value="1"/>
  <variable name="x44_32" index="2433" value="1"/>
  <variable name="x45_23" index="2474" value="1"/>
  <variable name="x46_28" index="2529" value="1"/>
  <variable name="x47_21" index="2572" value="1"/>
  <variable name="x48_8" index="2609" value="1"/>
  <variable name="x49_11" index="2662" value="1"/>
  <variable name="v0_0" index="2701" value="1"/>
  <variable name="v0_3" index="2704" value="1"/>
  <variable name="v2_0" index="2709" value="1"/>
  <variable name="v2_1" index="2710" value="1"/>
  <variable name="v2_2" index="2711" value="1"/>
  <variable name="v3_0" index="2713" value="1"/>
  <variable name="v3_1" index="2714" value="1"/>
  <variable name="v3_2" index="2715" value="1"/>
  <variable name="v4_1" index="2718" value="1"/>
  <variable name="v5_1" index="2722" value="1"/>
  <variable name="v6_0" index="2725" value="1"/>
  <variable name="v6_2" index="2727" value="1"/>
  <variable name="v7_0" index="2729" value="1"/>
  <variable name="v7_3" index="2732" value="1"/>
  <variable name="v8_0" index="2733" value="1"/>
  <variable name="v8_1" index="2734" value="1"/>
  <variable name="v8_2" index="2735" value="1"/>
  <variable name="v9_1" index="2738" value="1"/>
  <variable name="v10_3" index="2744" value="1"/>
  <variable name="v11_1" index="2746" value="1"/>
  <variable name="v11_2" index="2747" value="1"/>
  <variable name="v12_1" index="2750" value="1"/>
  <variable name="v13_0" index="2753" value="1"/>
  <variable name="v13_2" index="2755" value="1"/>
  <variable name="v14_0" index="2757" value="1"/>
  <variable name="v16_2" index="2767" value="1"/>
  <variable name="v17_2" index="2771" value="1"/>
  <variable name="v18_3" index="2776" value="1"/>
  <variable name="v19_0" index="2777" value="1"/>
  <variable name="v19_1" index="2778" value="1"/>
  <variable name="v20_2" index="2783" value="1"/>
  <variable name="v21_3" index="2788" value="1"/>
  <variable name="v22_0" index="2789" value="1"/>
  <variable name="v22_3" index="2792" value="1"/>
  <variable name="v24_0" index="2797" value="1"/>
  <variable name="v24_2" index="2799" value="1"/>
  <variable name="v25_1" index="2802" value="1"/>
  <variable name="v25_2" index="2803" value="1"/>
  <variable name="v26_0" index="2805" value="1"/>
  <variable name="v26_2" index="2807" value="1"/>
  <variable name="v27_2" index="2811" value="1"/>
  <variable name="v28_1" index="2814" value="1"/>
  <variable name="v29_3" index="2820" value="1"/>
  <variable name="v30_3" index="2824" value="1"/>
  <variable name="v31_0" index="2825" value="1"/>
  <variable name="v31_3" index="2828" value="1"/>
  <variable name="v32_1" index="2830" value="1"/>
  <variable name="v33_1" index="2834" value="1"/>
  <variable name="v33_2" index="2835" value="1"/>
  <variable name="v34_0" index="2837" value="1"/>
  <variable name="v35_2" index="2843" value="1"/>
  <variable name="v36_1" index="2846" value="1"/>
  <variable name="v36_2" index="2847" value="1"/>
  <variable name="v38_1" index="2854" value="1"/>
  <variable name="v38_2" index="2855" value="1"/>
  <variable name="v39_0" index="2857" value="1"/>
  <variable name="v40_1" index="2862" value="1"/>
  <variable name="v41_0" index="2865" value="1"/>
  <variable name="v42_1" index="2870" value="1"/>
  <variable name="v44_1" index="2878" value="1"/>
  <variable name="v45_2" index="2883" value="1"/>
  <variable name="v46_1" index="2886" value="1"/>
  <variable name="v47_0" index="2889" value="1"/>
  <variable name="v47_2" index="2891" value="1"/>
  <variable name="v48_3" index="2896" value="1"/>
  <variable name="v49_0" index="2897" value="1"/>
  <variable name="v49_1" index="2898" value="1"/>
  <variable name="v49_2" index="2899" value="1"/>
 </variables>
</CPLEXSolution>
